(set-option :produce-models true)
(set-option :produce-unsat-cores true)
(set-option :produce-interpolants true)
(set-option :interpolant-check-mode true)
(set-option :proof-transformation LU)
(set-logic ALL)
(set-info :source |SMT script generated on 2024-03-31T00:10:17+01:00 by Ultimate (https://ultimate.informatik.uni-freiburg.de/)|)
(set-info :smt-lib-version 2.5)
(set-info :category "industrial")
(set-info :ultimate-id gauss_sum.i.p+cfa-reducer.c_AllErrorsAtOnce_Iteration1)
(declare-fun |c_old(~__return_main~0)| () Int)
(declare-fun |c_old(~__return_main~0)_primed| () Int)
(declare-fun c_~__return_main~0 () Int)
(declare-fun c_~__return_main~0_primed () Int)
(declare-fun |c_old(~__return_80~0)| () Int)
(declare-fun |c_old(~__return_80~0)_primed| () Int)
(declare-fun c_~__return_80~0 () Int)
(declare-fun c_~__return_80~0_primed () Int)
(declare-fun |c_old(#valid)| () (Array Int Int))
(declare-fun |c_old(#valid)_primed| () (Array Int Int))
(declare-fun |c_#valid| () (Array Int Int))
(declare-fun |c_#valid_primed| () (Array Int Int))
(declare-fun |c_old(#length)| () (Array Int Int))
(declare-fun |c_old(#length)_primed| () (Array Int Int))
(declare-fun |c_#length| () (Array Int Int))
(declare-fun |c_#length_primed| () (Array Int Int))
(declare-fun |c_old(#memory_int#0)| () (Array Int (Array Int Int)))
(declare-fun |c_old(#memory_int#0)_primed| () (Array Int (Array Int Int)))
(declare-fun |c_#memory_int#0| () (Array Int (Array Int Int)))
(declare-fun |c_#memory_int#0_primed| () (Array Int (Array Int Int)))
(declare-fun |c_old(#StackHeapBarrier)| () Int)
(declare-fun |c_old(#StackHeapBarrier)_primed| () Int)
(declare-fun |c_#StackHeapBarrier| () Int)
(declare-fun |c_#StackHeapBarrier_primed| () Int)
(declare-fun |c_#Ultimate.allocInit_~size| () Int)
(declare-fun |c_#Ultimate.allocInit_~size_primed| () Int)
(declare-fun |c_#Ultimate.allocInit_ptrBase| () Int)
(declare-fun |c_#Ultimate.allocInit_ptrBase_primed| () Int)
(declare-fun |c_read~int#0_#ptr.base| () Int)
(declare-fun |c_read~int#0_#ptr.base_primed| () Int)
(declare-fun |c_read~int#0_#ptr.offset| () Int)
(declare-fun |c_read~int#0_#ptr.offset_primed| () Int)
(declare-fun |c_read~int#0_#sizeOfReadType| () Int)
(declare-fun |c_read~int#0_#sizeOfReadType_primed| () Int)
(declare-fun |c_read~int#0_#value| () Int)
(declare-fun |c_read~int#0_#value_primed| () Int)
(declare-fun |c_assume_abort_if_not_#in~cond| () Int)
(declare-fun |c_assume_abort_if_not_#in~cond_primed| () Int)
(declare-fun c_assume_abort_if_not_~cond () Int)
(declare-fun c_assume_abort_if_not_~cond_primed () Int)
(declare-fun |c_main_#res| () Int)
(declare-fun |c_main_#res_primed| () Int)
(declare-fun |c_main_#t~nondet4| () Int)
(declare-fun |c_main_#t~nondet4_primed| () Int)
(declare-fun c_main_~__tmp_1~0 () Int)
(declare-fun c_main_~__tmp_1~0_primed () Int)
(declare-fun c_main_~__VERIFIER_assert__cond~0 () Int)
(declare-fun c_main_~__VERIFIER_assert__cond~0_primed () Int)
(declare-fun c_main_~main__n~0 () Int)
(declare-fun c_main_~main__n~0_primed () Int)
(declare-fun c_main_~main__sum~0 () Int)
(declare-fun c_main_~main__sum~0_primed () Int)
(declare-fun c_main_~main__i~0 () Int)
(declare-fun c_main_~main__i~0_primed () Int)
(declare-fun |c_write~int#0_#value| () Int)
(declare-fun |c_write~int#0_#value_primed| () Int)
(declare-fun |c_write~int#0_#ptr.base| () Int)
(declare-fun |c_write~int#0_#ptr.base_primed| () Int)
(declare-fun |c_write~int#0_#ptr.offset| () Int)
(declare-fun |c_write~int#0_#ptr.offset_primed| () Int)
(declare-fun |c_write~int#0_#sizeOfWrittenType| () Int)
(declare-fun |c_write~int#0_#sizeOfWrittenType_primed| () Int)
(declare-fun |c___VERIFIER_nondet_int_#res| () Int)
(declare-fun |c___VERIFIER_nondet_int_#res_primed| () Int)
(declare-fun |c_ULTIMATE.start_#t~ret5| () Int)
(declare-fun |c_ULTIMATE.start_#t~ret5_primed| () Int)
(declare-fun |c___VERIFIER_assert_#in~cond| () Int)
(declare-fun |c___VERIFIER_assert_#in~cond_primed| () Int)
(declare-fun |c___assert_fail_#in~0.base| () Int)
(declare-fun |c___assert_fail_#in~0.base_primed| () Int)
(declare-fun |c___assert_fail_#in~0.offset| () Int)
(declare-fun |c___assert_fail_#in~0.offset_primed| () Int)
(declare-fun |c___assert_fail_#in~1.base| () Int)
(declare-fun |c___assert_fail_#in~1.base_primed| () Int)
(declare-fun |c___assert_fail_#in~1.offset| () Int)
(declare-fun |c___assert_fail_#in~1.offset_primed| () Int)
(declare-fun |c___assert_fail_#in~2| () Int)
(declare-fun |c___assert_fail_#in~2_primed| () Int)
(declare-fun |c___assert_fail_#in~3.base| () Int)
(declare-fun |c___assert_fail_#in~3.base_primed| () Int)
(declare-fun |c___assert_fail_#in~3.offset| () Int)
(declare-fun |c___assert_fail_#in~3.offset_primed| () Int)
(declare-fun |c_write~init~int#0_#value| () Int)
(declare-fun |c_write~init~int#0_#value_primed| () Int)
(declare-fun |c_write~init~int#0_#ptr.base| () Int)
(declare-fun |c_write~init~int#0_#ptr.base_primed| () Int)
(declare-fun |c_write~init~int#0_#ptr.offset| () Int)
(declare-fun |c_write~init~int#0_#ptr.offset_primed| () Int)
(declare-fun |c_write~init~int#0_#sizeOfWrittenType| () Int)
(declare-fun |c_write~init~int#0_#sizeOfWrittenType_primed| () Int)
(declare-fun c_ULTIMATE.dealloc_~addr.base () Int)
(declare-fun c_ULTIMATE.dealloc_~addr.base_primed () Int)
(declare-fun c_ULTIMATE.dealloc_~addr.offset () Int)
(declare-fun c_ULTIMATE.dealloc_~addr.offset_primed () Int)
(declare-fun c_aux_v_main_~__tmp_1~0_3 () Int)
(declare-fun |c_aux_v_ULTIMATE.start_#t~ret5_3| () Int)
(echo "starting trace check")
(push 1)
(declare-fun ~__return_main~0_-1 () Int)
(declare-fun ~__return_80~0_-1 () Int)
(declare-fun |old(~__return_main~0)_-1| () Int)
(declare-fun |old(~__return_80~0)_-1| () Int)
(declare-fun |old(~__return_main~0)_0| () Int)
(declare-fun |old(~__return_80~0)_0| () Int)
(declare-fun ~__return_main~0_0 () Int)
(declare-fun ~__return_80~0_0 () Int)
(declare-fun |#memory_int#0_-1| () (Array Int (Array Int Int)))
(declare-fun |#StackHeapBarrier_-1| () Int)
(declare-fun |#length_-1| () (Array Int Int))
(declare-fun |#valid_-1| () (Array Int Int))
(declare-fun ~__return_main~0_1 () Int)
(declare-fun ~__return_80~0_1 () Int)
(declare-fun |old(~__return_80~0)_3| () Int)
(declare-fun ~__return_80~0_3 () Int)
(declare-fun |main_#t~nondet4_4| () Int)
(declare-fun main_~main__n~0_4 () Int)
(declare-fun main_~main__sum~0_4 () Int)
(declare-fun main_~main__i~0_4 () Int)
(declare-fun main_~main__sum~0_6 () Int)
(declare-fun main_~main__i~0_6 () Int)
(declare-fun main_~__VERIFIER_assert__cond~0_7 () Int)
(declare-fun main_~main__n~0_7 () Int)
(declare-fun main_~main__sum~0_7 () Int)
(declare-fun main_~main__i~0_7 () Int)
(declare-fun v_main_~__tmp_1~0_4_fresh_1 () Int)
(declare-fun main_~__VERIFIER_assert__cond~0_8 () Int)
(assert (! true :named ssa_precond))
(assert (! (not false) :named ssa_postcond))
(assert (! (and (= ~__return_main~0_0 |old(~__return_main~0)_0|) (= ~__return_80~0_0 |old(~__return_80~0)_0|)) :named ssa_0_GlobVarAssigCall))
(assert (! true :named ssa_0_LocVarAssigCall))
(assert (! (and (= ~__return_main~0_-1 |old(~__return_main~0)_0|) (= |old(~__return_80~0)_0| ~__return_80~0_-1)) :named ssa_0_OldVarAssigCall))
(assert (! (and (= (select |#length_-1| 2) 28) (< 0 |#StackHeapBarrier_-1|) (= 0 ~__return_main~0_1) (= 12 (select |#length_-1| 3)) (= (select |#valid_-1| 3) 1) (= (select |#valid_-1| 2) 1) (= (select |#valid_-1| 1) 1) (= (select (select |#memory_int#0_-1| 1) 1) 0) (= (select |#length_-1| 1) 2) (= (select (select |#memory_int#0_-1| 1) 0) 48) (= (select |#valid_-1| 0) 0) (= ~__return_80~0_1 0)) :named ssa_1))
(assert (! true :named ssa_2_return))
(assert (! (= ~__return_80~0_3 |old(~__return_80~0)_3|) :named ssa_3_GlobVarAssigCall))
(assert (! true :named ssa_3_LocVarAssigCall))
(assert (! (= |old(~__return_80~0)_3| ~__return_80~0_1) :named ssa_3_OldVarAssigCall))
(assert (! (and (<= 0 (+ 2147483648 main_~main__n~0_4)) (<= main_~main__n~0_4 2147483647)) :named ssa_4))
(assert (! (<= 1 main_~main__n~0_4) :named ssa_5))
(assert (! (and (<= main_~main__n~0_4 1000) (= main_~main__i~0_6 1) (= main_~main__sum~0_6 0)) :named ssa_6))
(assert (! (and (= v_main_~__tmp_1~0_4_fresh_1 (ite (= (+ main_~main__n~0_4 (* main_~main__n~0_4 main_~main__n~0_4)) (* 2 main_~main__sum~0_6)) 1 0)) (< main_~main__n~0_4 main_~main__i~0_6) (= v_main_~__tmp_1~0_4_fresh_1 main_~__VERIFIER_assert__cond~0_7)) :named ssa_7))
(exit)
